c solution=1
p cnf 30 50
22 28 0
12 14 0
24 -28 0
16 -30 0
-8 -19 0
-6 -29 0
28 -8 0
-24 -5 0
-15 18 0
-4 28 0
-18 10 0
20 -29 0
11 -23 0
6 -28 0
-15 -24 0
-8 -4 0
29 26 0
-18 -22 0
-28 -15 0
25 -19 0
5 -23 0
9 -15 0
16 3 0
-21 26 0
17 -6 0
29 -11 0
-22 -4 0
-10 -7 0
5 -25 0
5 -13 0
29 13 0
-2 12 0
30 6 0
3 -26 0
-6 22 0
3 -25 0
-12 6 0
-28 9 0
-24 -13 0
11 -28 0
-10 29 0
-3 -15 0
-4 -3 0
-4 -9 0
-2 -27 0
-16 -9 0
-10 29 0
8 -11 0
26 -27 0
-1 -7 0
